--- Job feedOptimizer.gms Start 07/10/20 15:10:49 31.1.0 r55b6ce3 WEX-WEI x86 64bit/MS Windows
--- Applying:
    E:\31.1\gmsprmNT.txt
--- GAMS Parameters defined
    Input C:\Users\hasee\Documents\GitHub\GAMS-MIRO\feedopt\feedOptimizer.gms
    PageSize 0
    ScrDir C:\Users\hasee\Documents\GitHub\GAMS-MIRO\feedopt\225a\
    SysDir E:\31.1\
    LogOption 3
    ErrMsg 1
    ErrorLog 99
    IDE 1
    LstTitleLeftAligned 1
    IDCGenerateJSON conf_feedOptimizer/feedOptimizer_io.json
    IDCGenerateGDX data_feedOptimizer/default.gdx
GAMS 31.1.0   Copyright (C) 1987-2020 GAMS Development. All rights reserved
Licensee: Michael Ferris Research Group - Eval           G191008/0001AS-GEN
          UW-Madison Computer Sciences Dept.                         DCE244
          E:\31.1\gamslice.txt
          Evaluation license: Not for commercial or production use
--- Starting compilation
--- feedOptimizer.gms(235) 3 Mb
--- Starting execution: elapsed 0:00:00.015
--- feedOptimizer.gms(195) 4 Mb
--- Generating MIP model feedOptimizer
--- feedOptimizer.gms(197) 4 Mb
---   1 rows  1 columns  1 non-zeroes
--- Executing CPLEX: elapsed 0:00:00.043

IBM ILOG CPLEX   31.1.0 r55b6ce3 Released May 01, 2020 WEI x86 64bit/MS Window
--- GAMS/Cplex licensed for continuous and discrete problems.
Cplex 12.10.0.0

Reading data...
Starting Cplex...
Space for names approximately 0.00 Mb
Use option 'names no' to turn use of names off
Version identifier: 12.10.0.0 | 2019-11-26 | 843d4de2ae
CPXPARAM_Advance                                 0
CPXPARAM_Simplex_Display                         2
CPXPARAM_Threads                                 1
CPXPARAM_Parallel                                1
CPXPARAM_Simplex_Limits_Iterations               2000000000
CPXPARAM_TimeLimit                               30
CPXPARAM_Tune_TimeLimit                          6
Tried aggregator 1 time.
LP Presolve eliminated 1 rows and 1 columns.
All rows and columns eliminated.
Presolve time = 0.00 sec. (0.00 ticks)
LP status(1): optimal
Cplex Time: 0.00sec (det. 0.00 ticks)

Optimal solution found.
Objective :           0.000000

--- Restarting execution
--- feedOptimizer.gms(197) 2 Mb
--- Reading solution for model feedOptimizer
--- Executing after solve: elapsed 0:00:00.169
--- feedOptimizer.gms(233) 3 Mb
--- GDX File C:\Users\hasee\Documents\GitHub\GAMS-MIRO\feedopt\data_feedOptimizer/default.gdx
*** Status: Normal completion
--- Job feedOptimizer.gms Stop 07/10/20 15:10:49 elapsed 0:00:00.193

Warning in eval(ei, envir) :
  The alias of symbol: '_scalars_out' was selected to be overwritten. However, this symbol could not be found.
TRACE [2020-07-10 15:10:55] Logging facility initialised.
DEBUG [2020-07-10 15:10:55] Database connection established.
DEBUG [2020-07-10 15:10:55] Access Control initialised.
WARN [2020-07-10 15:10:55] There are orphaned tables in your database: 'feedoptimizer__scalars_out'.

This could be caused because you used a different database schema in the past (e.g. due to different inputs and/or outputs). 
Note that you can remove orphaned database tables using the configuration mode ('Database management' section).
INFO [2020-07-10 15:10:55] New data: 'db_save_feedoptimizer.zip' is being stored in the database. Please wait a until the import is finished.
ERROR [2020-07-10 15:10:55] Zip archive contains invalid files: 'C:/Users/hasee/Documents/GitHub/GAMS-MIRO/feedopt/data_feedoptimizer/db_save_feedoptimizer.zip'.
INFO [2020-07-10 15:10:56] New data: 'default.gdx' is being stored in the database. Please wait a until the import is finished.
DEBUG [2020-07-10 15:10:56] Db: Data was imported from table: '_sys_metadata_feedoptimizer' (Db.importDataset).
DEBUG [2020-07-10 15:10:57] Db: 30 rows in table: '_sys_metadata_feedoptimizer' were deleted. (Db.deleteRows)
DEBUG [2020-07-10 15:10:57] Db: Metadata (table: '_sys_metadata_feedoptimizer') was written to database. (Db.writeMetadata).
DEBUG [2020-07-10 15:10:57] Db: Metadata (table: '_sys_metadata_feedoptimizer') was added for scenario: 'default' (Scenario.writeMetadata).
DEBUG [2020-07-10 15:10:57] Db: Data was added to table: 'feedoptimizer_bigs' (Db.exportScenDataset).
DEBUG [2020-07-10 15:10:57] Db: Data was added to table: 'feedoptimizer_c' (Db.exportScenDataset).
DEBUG [2020-07-10 15:10:57] Db: Data was added to table: 'feedoptimizer_height' (Db.exportScenDataset).
DEBUG [2020-07-10 15:10:57] Db: Data was added to table: 'feedoptimizer_width2' (Db.exportScenDataset).
DEBUG [2020-07-10 15:10:57] Db: Data was added to table: 'feedoptimizer_valc' (Db.exportScenDataset).
DEBUG [2020-07-10 15:10:57] Db: Data was added to table: 'feedoptimizer_time' (Db.exportScenDataset).
DEBUG [2020-07-10 15:10:57] Db: Data was added to table: 'feedoptimizer_sponsored' (Db.exportScenDataset).
DEBUG [2020-07-10 15:10:57] Db: Data was added to table: 'feedoptimizer_cscore' (Db.exportScenDataset).
DEBUG [2020-07-10 15:10:57] Db: Data was added to table: 'feedoptimizer__scalars' (Db.exportScenDataset).
DEBUG [2020-07-10 15:10:57] Db: Data was imported from table: '_sys_scenlocks_feedoptimizer' (Db.importDataset).
DEBUG [2020-07-10 15:10:57] Db: 1 rows in table: '_sys_scenlocks_feedoptimizer' were deleted. (Db.deleteRows)
DEBUG [2020-07-10 15:10:57] Db: hasee: Lock was added for scenario: '1' (Scenario.lock).
INFO [2020-07-10 15:10:57] New data: 'feedoptimizer.gdx' is being stored in the database. Please wait a until the import is finished.
DEBUG [2020-07-10 15:10:58] Db: Data was imported from table: '_sys_metadata_feedoptimizer' (Db.importDataset).
DEBUG [2020-07-10 15:10:58] Db: 1677 rows in table: '_sys_metadata_feedoptimizer' were deleted. (Db.deleteRows)
DEBUG [2020-07-10 15:10:58] Db: Metadata (table: '_sys_metadata_feedoptimizer') was written to database. (Db.writeMetadata).
DEBUG [2020-07-10 15:10:58] Db: Metadata (table: '_sys_metadata_feedoptimizer') was added for scenario: 'feedoptimizer' (Scenario.writeMetadata).
DEBUG [2020-07-10 15:10:58] Db: Data was added to table: 'feedoptimizer_bigs' (Db.exportScenDataset).
DEBUG [2020-07-10 15:10:58] Db: Data was added to table: 'feedoptimizer_c' (Db.exportScenDataset).
DEBUG [2020-07-10 15:10:58] Db: Data was added to table: 'feedoptimizer_height' (Db.exportScenDataset).
DEBUG [2020-07-10 15:10:58] Db: Data was added to table: 'feedoptimizer_width2' (Db.exportScenDataset).
DEBUG [2020-07-10 15:10:58] Db: Data was added to table: 'feedoptimizer_valc' (Db.exportScenDataset).
DEBUG [2020-07-10 15:10:58] Db: Data was added to table: 'feedoptimizer_time' (Db.exportScenDataset).
DEBUG [2020-07-10 15:10:58] Db: Data was added to table: 'feedoptimizer_sponsored' (Db.exportScenDataset).
DEBUG [2020-07-10 15:10:58] Db: Data was added to table: 'feedoptimizer_cscore' (Db.exportScenDataset).
DEBUG [2020-07-10 15:10:58] Db: Data was added to table: 'feedoptimizer__scalars' (Db.exportScenDataset).
DEBUG [2020-07-10 15:10:58] Db: Data was imported from table: '_sys_scenlocks_feedoptimizer' (Db.importDataset).
DEBUG [2020-07-10 15:10:58] Db: hasee: Lock was added for scenario: '2' (Scenario.lock).
INFO [2020-07-10 15:10:58] New data: 'feedoptimizer.zip' is being stored in the database. Please wait a until the import is finished.
ERROR [2020-07-10 15:10:58] Zip archive contains invalid files: 'C:/Users/hasee/Documents/GitHub/GAMS-MIRO/feedopt/data_feedoptimizer/feedoptimizer.zip'.
INFO [2020-07-10 15:10:58] New data: 'feedoptimizer_f1.gdx' is being stored in the database. Please wait a until the import is finished.
DEBUG [2020-07-10 15:10:58] Db: Data was imported from table: '_sys_metadata_feedoptimizer' (Db.importDataset).
DEBUG [2020-07-10 15:10:58] Db: 1677 rows in table: '_sys_metadata_feedoptimizer' were deleted. (Db.deleteRows)
DEBUG [2020-07-10 15:10:58] Db: Metadata (table: '_sys_metadata_feedoptimizer') was written to database. (Db.writeMetadata).
DEBUG [2020-07-10 15:10:58] Db: Metadata (table: '_sys_metadata_feedoptimizer') was added for scenario: 'feedoptimizer_f1' (Scenario.writeMetadata).
DEBUG [2020-07-10 15:10:59] Db: Data was added to table: 'feedoptimizer_bigs' (Db.exportScenDataset).
DEBUG [2020-07-10 15:10:59] Db: Data was added to table: 'feedoptimizer_c' (Db.exportScenDataset).
DEBUG [2020-07-10 15:10:59] Db: Data was added to table: 'feedoptimizer_height' (Db.exportScenDataset).
DEBUG [2020-07-10 15:10:59] Db: Data was added to table: 'feedoptimizer_width2' (Db.exportScenDataset).
DEBUG [2020-07-10 15:10:59] Db: Data was added to table: 'feedoptimizer_valc' (Db.exportScenDataset).
DEBUG [2020-07-10 15:10:59] Db: Data was added to table: 'feedoptimizer_time' (Db.exportScenDataset).
DEBUG [2020-07-10 15:10:59] Db: Data was added to table: 'feedoptimizer_sponsored' (Db.exportScenDataset).
DEBUG [2020-07-10 15:10:59] Db: Data was added to table: 'feedoptimizer_cscore' (Db.exportScenDataset).
DEBUG [2020-07-10 15:10:59] Db: Data was added to table: 'feedoptimizer__scalars' (Db.exportScenDataset).
DEBUG [2020-07-10 15:10:59] Db: Data was imported from table: '_sys_scenlocks_feedoptimizer' (Db.importDataset).
DEBUG [2020-07-10 15:10:59] Db: 1 rows in table: '_sys_scenlocks_feedoptimizer' were deleted. (Db.deleteRows)
DEBUG [2020-07-10 15:10:59] Db: hasee: Lock was added for scenario: '5' (Scenario.lock).
INFO [2020-07-10 15:10:59] New data: 'feedoptimizer_feedoptimizer.zip' is being stored in the database. Please wait a until the import is finished.
ERROR [2020-07-10 15:10:59] Zip archive contains invalid files: 'C:/Users/hasee/Documents/GitHub/GAMS-MIRO/feedopt/data_feedoptimizer/feedoptimizer_feedoptimizer.zip'.
DEBUG [2020-07-10 15:11:04] Scenario: '2' unlocked.
DEBUG [2020-07-10 15:11:04] Db: 1 rows in table: '_sys_scenlocks_feedoptimizer' were deleted. (Db.deleteRows)
INFO [2020-07-10 15:11:10] Session started (model: 'feedoptimizer', user: 'hasee', workdir: 'C:/Users/hasee/Documents/GitHub/GAMS-MIRO/feedopt').
DEBUG [2020-07-10 15:11:10] Working directory was created: 'C:/Users/hasee/Documents/GitHub/GAMS-MIRO/feedopt'.
DEBUG [2020-07-10 15:11:10] Db: Data was imported from table: '_sys_metadata_feedoptimizer' (Db.importDataset).
DEBUG [2020-07-10 15:11:12] Sidebar menu item: 'inputData' selected.
DEBUG [2020-07-10 15:11:12] Loading and rendering scenarios: '6'.
DEBUG [2020-07-10 15:11:12] Db: Data was imported from table: 'feedoptimizer_result' (Db.importDataset).
DEBUG [2020-07-10 15:11:12] Db: Data was imported from table: 'feedoptimizer_bigs' (Db.importDataset).
DEBUG [2020-07-10 15:11:12] Db: Data was imported from table: 'feedoptimizer_c' (Db.importDataset).
DEBUG [2020-07-10 15:11:12] Db: Data was imported from table: 'feedoptimizer_height' (Db.importDataset).
DEBUG [2020-07-10 15:11:12] Db: Data was imported from table: 'feedoptimizer_width2' (Db.importDataset).
DEBUG [2020-07-10 15:11:12] Db: Data was imported from table: 'feedoptimizer_valc' (Db.importDataset).
DEBUG [2020-07-10 15:11:12] Db: Data was imported from table: 'feedoptimizer_time' (Db.importDataset).
DEBUG [2020-07-10 15:11:12] Db: Data was imported from table: 'feedoptimizer_sponsored' (Db.importDataset).
DEBUG [2020-07-10 15:11:12] Db: Data was imported from table: 'feedoptimizer_cscore' (Db.importDataset).
DEBUG [2020-07-10 15:11:12] Db: Data was imported from table: 'feedoptimizer__scalars' (Db.importDataset).
DEBUG [2020-07-10 15:11:12] Db: A table named: '_sys_scripts_feedoptimizer' does not exist in the database (Db.importDataset).
DEBUG [2020-07-10 15:11:13] Scenario: 'New Scenario' closed.
DEBUG [2020-07-10 15:11:13] Db: Data was imported from table: '_sys_metadata_feedoptimizer' (Db.importDataset).
DEBUG [2020-07-10 15:11:13] Db: Data was imported from table: '_sys_scenlocks_feedoptimizer' (Db.importDataset).
DEBUG [2020-07-10 15:11:13] Db: 1 rows in table: '_sys_scenlocks_feedoptimizer' were deleted. (Db.deleteRows)
DEBUG [2020-07-10 15:11:13] Db: hasee: Lock was added for scenario: '6' (Scenario.lock).
DEBUG [2020-07-10 15:11:13] Dataset: bigs loaded successfully (mode: scen, overwrite: FALSE)
DEBUG [2020-07-10 15:11:13] Dataset: c loaded successfully (mode: scen, overwrite: FALSE)
DEBUG [2020-07-10 15:11:13] Dataset: height loaded successfully (mode: scen, overwrite: FALSE)
DEBUG [2020-07-10 15:11:13] Dataset: width2 loaded successfully (mode: scen, overwrite: FALSE)
DEBUG [2020-07-10 15:11:13] Dataset: valc loaded successfully (mode: scen, overwrite: FALSE)
DEBUG [2020-07-10 15:11:13] Dataset: time loaded successfully (mode: scen, overwrite: FALSE)
DEBUG [2020-07-10 15:11:13] Dataset: sponsored loaded successfully (mode: scen, overwrite: FALSE)
DEBUG [2020-07-10 15:11:13] Dataset: cscore loaded successfully (mode: scen, overwrite: FALSE)
DEBUG [2020-07-10 15:11:14] Scenario: '6' was loaded into UI
DEBUG [2020-07-10 15:11:14] Sidebar menu item: 'outputData' selected.
DEBUG [2020-07-10 15:11:27] Sidebar menu item: 'inputData' selected.
DEBUG [2020-07-10 15:11:29] hasee: Import input data button clicked.
DEBUG [2020-07-10 15:11:29] Db: Data was imported from table: '_sys_metadata_feedoptimizer' (Db.importDataset).
DEBUG [2020-07-10 15:11:36] Confirm load scenario button clicked.
DEBUG [2020-07-10 15:11:37] Overwrite scenario button clicked.
DEBUG [2020-07-10 15:11:37] Loading and rendering scenarios: '7'.
DEBUG [2020-07-10 15:11:38] Db: Data was imported from table: 'feedoptimizer_result' (Db.importDataset).
DEBUG [2020-07-10 15:11:38] Db: Data was imported from table: 'feedoptimizer_bigs' (Db.importDataset).
DEBUG [2020-07-10 15:11:38] Db: Data was imported from table: 'feedoptimizer_c' (Db.importDataset).
DEBUG [2020-07-10 15:11:38] Db: Data was imported from table: 'feedoptimizer_height' (Db.importDataset).
DEBUG [2020-07-10 15:11:38] Db: Data was imported from table: 'feedoptimizer_width2' (Db.importDataset).
DEBUG [2020-07-10 15:11:38] Db: Data was imported from table: 'feedoptimizer_valc' (Db.importDataset).
DEBUG [2020-07-10 15:11:38] Db: Data was imported from table: 'feedoptimizer_time' (Db.importDataset).
DEBUG [2020-07-10 15:11:38] Db: Data was imported from table: 'feedoptimizer_sponsored' (Db.importDataset).
DEBUG [2020-07-10 15:11:38] Db: Data was imported from table: 'feedoptimizer_cscore' (Db.importDataset).
DEBUG [2020-07-10 15:11:38] Db: Data was imported from table: 'feedoptimizer__scalars' (Db.importDataset).
DEBUG [2020-07-10 15:11:38] Db: A table named: '_sys_scripts_feedoptimizer' does not exist in the database (Db.importDataset).
DEBUG [2020-07-10 15:11:38] Scenario: '1-D' closed.
DEBUG [2020-07-10 15:11:38] Db: Data was imported from table: '_sys_metadata_feedoptimizer' (Db.importDataset).
DEBUG [2020-07-10 15:11:38] Db: Data was imported from table: '_sys_scenlocks_feedoptimizer' (Db.importDataset).
DEBUG [2020-07-10 15:11:38] Db: 1 rows in table: '_sys_scenlocks_feedoptimizer' were deleted. (Db.deleteRows)
DEBUG [2020-07-10 15:11:38] Db: hasee: Lock was added for scenario: '7' (Scenario.lock).
DEBUG [2020-07-10 15:11:38] Dataset: bigs loaded successfully (mode: scen, overwrite: TRUE)
DEBUG [2020-07-10 15:11:38] Dataset: c loaded successfully (mode: scen, overwrite: TRUE)
DEBUG [2020-07-10 15:11:38] Dataset: height loaded successfully (mode: scen, overwrite: TRUE)
DEBUG [2020-07-10 15:11:38] Dataset: width2 loaded successfully (mode: scen, overwrite: TRUE)
DEBUG [2020-07-10 15:11:38] Dataset: valc loaded successfully (mode: scen, overwrite: TRUE)
DEBUG [2020-07-10 15:11:38] Dataset: time loaded successfully (mode: scen, overwrite: TRUE)
DEBUG [2020-07-10 15:11:38] Dataset: sponsored loaded successfully (mode: scen, overwrite: TRUE)
DEBUG [2020-07-10 15:11:38] Dataset: cscore loaded successfully (mode: scen, overwrite: TRUE)
DEBUG [2020-07-10 15:11:39] Scenario: '7' was loaded into UI
DEBUG [2020-07-10 15:11:40] Sidebar menu item: 'outputData' selected.
DEBUG [2020-07-10 15:11:44] Sidebar menu item: 'inputData' selected.
DEBUG [2020-07-10 15:11:44] Solve button clicked (model: 'feedoptimizer').
TRACE [2020-07-10 15:11:44] Dataset: All stories available saved in dataTmp.
TRACE [2020-07-10 15:11:45] Dataset: User behavior case saved in dataTmp.
TRACE [2020-07-10 15:11:45] Dataset: Story height saved in dataTmp.
TRACE [2020-07-10 15:11:45] Dataset: Story width saved in dataTmp.
TRACE [2020-07-10 15:11:45] Dataset: General score for each story saved in dataTmp.
TRACE [2020-07-10 15:11:45] Dataset: Available time for each story saved in dataTmp.
TRACE [2020-07-10 15:11:45] Dataset: sponsored stories saved in dataTmp.
TRACE [2020-07-10 15:11:45] Dataset: Story score at different scenarios saved in dataTmp.
TRACE [2020-07-10 15:11:45] Dataset: Total time saved in dataTmp.
TRACE [2020-07-10 15:11:45] Dataset: Interface height saved in dataTmp.
TRACE [2020-07-10 15:11:45] Dataset: Interface width saved in dataTmp.
TRACE [2020-07-10 15:11:45] Dataset: Feed retrieved time saved in dataTmp.
TRACE [2020-07-10 15:11:45] Dataset: Time window for freshness saved in dataTmp.
TRACE [2020-07-10 15:11:45] Dataset: Dimension of story(1/2) saved in dataTmp.
TRACE [2020-07-10 15:11:45] Dataset: Sponsor ratio saved in dataTmp.
TRACE [2020-07-10 15:11:45] Dataset: Initial ratio saved in dataTmp.
DEBUG [2020-07-10 15:11:45] Db: Data was imported from table: '_sys_attach_feedoptimizer' (Db.importDataset).
DEBUG [2020-07-10 15:11:46] Sidebar menu item: 'gamsinter' selected.
DEBUG [2020-07-10 15:11:49] Db: Data was imported from table: '_sys_attach_feedoptimizer' (Db.importDataset).
DEBUG [2020-07-10 15:11:49] Sidebar menu item: 'outputData' selected.
INFO [2020-07-10 15:17:41] Session ended (model: 'feedoptimizer', user: 'hasee').
